&CONTROL
    calculation = "scf"
    prefix='Sb2Te3'
    outdir = "./tmp/"
    verbosity = "high"
    wf_collect = .true.
    pseudo_dir = "/home/yehlab/espresso/pseudo/"
/

&SYSTEM
    ibrav = 0
    nat   = 15
    ntyp  = 2

    ecutrho     =  400
    ecutwfc     =  80

    degauss     =  1.00000e-02
    occupations = "smearing"
    smearing    = "gaussian"

    ! SOC
    noncolin = .true.
    lspinorb = .true.
    starting_magnetization(1) =   0.0d0
    starting_magnetization(2) =   0.0d0
/

&ELECTRONS
    conv_thr         =  1.00000e-07
    electron_maxstep = 200
    mixing_beta      =  0.07
    !startingpot = 'file'
/

CELL_PARAMETERS {angstrom}
  4.332840   0.000000   0.000000
 -2.166420   3.752350   0.000000
  0.000000   0.000000  38.330600

ATOMIC_SPECIES
Te    127.60000  Te.rel-pbe-n-rrkjus_psl.1.0.0.UPF
Sb    121.76000  Sb.rel-pbe-n-rrkjus_psl.1.0.0.UPF

ATOMIC_POSITIONS {angstrom}
Te      0.000000   0.000000  33.312787
Sb      2.166418   1.250782  31.602087
Te      0.000000   2.501564  29.614921
Sb      0.000000   0.000000  27.627755
Te      2.166418   1.250782  25.917055
Te      0.000000   2.501564  22.863148
Sb      0.000000   0.000000  21.152448
Te      2.166418   1.250782  19.165281  0 0 0
Sb      0.000000   2.501564  17.178115  0 0 0
Te      0.000000   0.000000  15.467415  0 0 0
Te      2.166418   1.250782  12.413508  0 0 0
Sb      0.000000   2.501564  10.702808  0 0 0
Te      0.000000   0.000000   8.715642  0 0 0
Sb      2.166418   1.250782   6.728494  0 0 0
Te      0.000000   2.501564   5.017794  0 0 0
K_POINTS {automatic}
 4  4  1  0 0 0
