write_hr = .TRUE.
write_xyz = .TRUE.
! restart = wannierise

! Bandstructure plot 
bands_plot      =  true
begin kpoint_path
K 0.6666667    -0.3333333    0.0 G 0.0    0.0    0.0
G 0.0    0.0    0.0 M 0.5    0.0    0.0
end kpoint_path
bands_num_points 100
bands_plot_format gnuplot xmgrace

wannier_plot = .TRUE.
spinors = .TRUE.
num_wann = 90
num_bands = 168
dis_num_iter=4000
num_iter=0
translate_home_cell =  .TRUE.

!inner -
dis_froz_min = 3.0
dis_froz_max = 5.0

!min of outer window
dis_win_min = -2.0
dis_win_max = 9.0

! exclude_bands : 1-30, 130-168

begin unit_cell_cart  ! crystal lattice information
  4.332840   0.000000   0.000000
 -2.166420   3.752350   0.000000
  0.000000   0.000000  38.330600
end unit_cell_cart

begin atoms_cart
[Ang]
Te      0.000000   0.000000  33.312787
Sb      2.166418   1.250782  31.602087
Te      0.000000   2.501564  29.614921
Sb      0.000000   0.000000  27.627755
Te      2.166418   1.250782  25.917055
Te      0.000000   2.501564  22.863148
Sb      0.000000   0.000000  21.152448
Te      2.166418   1.250782  19.165281  0 0 0
Sb      0.000000   2.501564  17.178115  0 0 0
Te      0.000000   0.000000  15.467415  0 0 0
Te      2.166418   1.250782  12.413508  0 0 0
Sb      0.000000   2.501564  10.702808  0 0 0
Te      0.000000   0.000000   8.715642  0 0 0
Sb      2.166418   1.250782   6.728494  0 0 0
Te      0.000000   2.501564   5.017794  0 0 0
end atoms_cart

begin projections
Sb: px; py; pz
Te: px; py; pz
end projections

mp_grid = 4 4 1
begin kpoints
  0.00000000  0.00000000  0.00000000
  0.00000000  0.25000000  0.00000000
  0.00000000  0.50000000  0.00000000
  0.00000000  0.75000000  0.00000000
  0.25000000  0.00000000  0.00000000
  0.25000000  0.25000000  0.00000000
  0.25000000  0.50000000  0.00000000
  0.25000000  0.75000000  0.00000000
  0.50000000  0.00000000  0.00000000
  0.50000000  0.25000000  0.00000000
  0.50000000  0.50000000  0.00000000
  0.50000000  0.75000000  0.00000000
  0.75000000  0.00000000  0.00000000
  0.75000000  0.25000000  0.00000000
  0.75000000  0.50000000  0.00000000
  0.75000000  0.75000000  0.00000000
end kpoints
